benchmark/results/graph__10-1000-0.10-02_15/graph__10-1000-0.10-02_15_Quinton_Benders_aux.lp
\ This file has been generated by DOcplex
\ ENCODING=ISO-8859-1
\Problem name: Quinton Benders_auxiliary_sub

Minimize
 obj: 0.000761836575 pi_nr_a0 + 0.000802665525 pi_nr_a1
      + 0.000957724965 pi_nr_a2 + 0.000808687616 pi_nr_a3
      + 0.001242897727 pi_nr_a4 + 0.001203013169 pi_nr_a5
      + 0.001455906822 pi_nr_a6 + 0.001118925831 pi_nr_a7
      + 0.000888324873 pi_nr_a8 + 0.000908618899 pi_nr_a9 + pi_p_a1_a2
      + pi_p_a1_a5 + 2 pi_p_a1_a9 + pi_p_a7_a9 + pi_p_a2_a9
      + 614.500000000000 pi_d_a0_a1_proc_1 + 2150.750000000000 pi_d_a0_a1_proc_0
      + 615.375000000000 pi_d_a1_a0_proc_1 + 2151.625000000000 pi_d_a1_a0_proc_0
      + 1844.125000000000 pi_d_a0_a2_proc_1
      + 2458.625000000000 pi_d_a0_a2_proc_0 + 307.500000000000 pi_d_a2_a0_proc_1
      + 922 pi_d_a2_a0_proc_0 + 2150.750000000000 pi_d_a0_a3_proc_0
      + 308.125000000000 pi_d_a3_a0_proc_0 + 2150.875000000000 pi_d_a0_a4_proc_0
      + 308 pi_d_a4_a0_proc_0 + 1229.625000000000 pi_d_a0_a5_proc_1
      + 2151.375000000000 pi_d_a0_a5_proc_0 + 614.750000000000 pi_d_a5_a0_proc_1
      + 1536.500000000000 pi_d_a5_a0_proc_0 + 307.500000000000 pi_d_a0_a6_proc_0
      + 2151.375000000000 pi_d_a6_a0_proc_0
      + 2150.750000000000 pi_d_a0_a7_proc_0 + 308.125000000000 pi_d_a7_a0_proc_0
      + 2151 pi_d_a0_a8_proc_0 + 307.875000000000 pi_d_a8_a0_proc_0
      + 615.375000000000 pi_d_a0_a9_proc_1 + 2458.875000000000 pi_d_a0_a9_proc_0
      + 307.250000000000 pi_d_a9_a0_proc_1 + 2150.750000000000 pi_d_a9_a0_proc_0
      + 1844.375000000000 pi_d_a1_a2_proc_1
      + 2458.875000000000 pi_d_a1_a2_proc_0 + 307.250000000000 pi_d_a2_a1_proc_1
      + 921.750000000000 pi_d_a2_a1_proc_0 + 2151.625000000000 pi_d_a1_a3_proc_0
      + 307.250000000000 pi_d_a3_a1_proc_0 + 2151.625000000000 pi_d_a1_a4_proc_0
      + 307.250000000000 pi_d_a4_a1_proc_0 + 1229.875000000000 pi_d_a1_a5_proc_1
      + 2151.625000000000 pi_d_a1_a5_proc_0 + 614.500000000000 pi_d_a5_a1_proc_1
      + 1536.250000000000 pi_d_a5_a1_proc_0
      + 2151.750000000000 pi_d_a1_a6_proc_0 + 307.125000000000 pi_d_a6_a1_proc_0
      + 2151.625000000000 pi_d_a1_a7_proc_0 + 307.250000000000 pi_d_a7_a1_proc_0
      + 2151.750000000000 pi_d_a1_a8_proc_0 + 307.125000000000 pi_d_a8_a1_proc_0
      + 616.125000000000 pi_d_a1_a9_proc_1 + 2459.625000000000 pi_d_a1_a9_proc_0
      + 306.500000000000 pi_d_a9_a1_proc_1 + 2150 pi_d_a9_a1_proc_0
      + 1229 pi_d_a2_a3_proc_0 + 308.125000000000 pi_d_a3_a2_proc_0
      + 1229 pi_d_a2_a4_proc_0 + 308.125000000000 pi_d_a4_a2_proc_0
      + 2458.250000000000 pi_d_a2_a5_proc_1
      + 2458.250000000000 pi_d_a2_a5_proc_0 + 307.875000000000 pi_d_a5_a2_proc_1
      + 307.875000000000 pi_d_a5_a2_proc_0 + 1229.375000000000 pi_d_a2_a6_proc_0
      + 307.750000000000 pi_d_a6_a2_proc_0 + 1229 pi_d_a2_a7_proc_0
      + 308.125000000000 pi_d_a7_a2_proc_0 + 1229.125000000000 pi_d_a2_a8_proc_0
      + 308 pi_d_a8_a2_proc_0 + 1537.125000000000 pi_d_a2_a9_proc_1
      + 2458.875000000000 pi_d_a2_a9_proc_0 + 307.250000000000 pi_d_a9_a2_proc_1
      + 1229 pi_d_a9_a2_proc_0 + 308.125000000000 pi_d_a3_a4_proc_0
      + 307.250000000000 pi_d_a4_a3_proc_0 + 1537.125000000000 pi_d_a3_a5_proc_0
      + 307.250000000000 pi_d_a5_a3_proc_0 + 308.250000000000 pi_d_a3_a6_proc_0
      + 307.125000000000 pi_d_a6_a3_proc_0 + 307.375000000000 pi_d_a3_a7_proc_0
      + 308 pi_d_a7_a3_proc_0 + 308.250000000000 pi_d_a3_a8_proc_0
      + 307.125000000000 pi_d_a8_a3_proc_0 + 2458.875000000000 pi_d_a3_a9_proc_0
      + 307.250000000000 pi_d_a9_a3_proc_0 + 1537.125000000000 pi_d_a4_a5_proc_0
      + 307.250000000000 pi_d_a5_a4_proc_0 + 308.125000000000 pi_d_a4_a6_proc_0
      + 307.250000000000 pi_d_a6_a4_proc_0 + 307.250000000000 pi_d_a4_a7_proc_0
      + 308.125000000000 pi_d_a7_a4_proc_0 + 308.125000000000 pi_d_a4_a8_proc_0
      + 307.250000000000 pi_d_a8_a4_proc_0 + 2458.750000000000 pi_d_a4_a9_proc_0
      + 307.375000000000 pi_d_a9_a4_proc_0 + 1536.375000000000 pi_d_a5_a6_proc_0
      + 308 pi_d_a6_a5_proc_0 + 1536.250000000000 pi_d_a5_a7_proc_0
      + 308.125000000000 pi_d_a7_a5_proc_0 + 1536.375000000000 pi_d_a5_a8_proc_0
      + 308 pi_d_a8_a5_proc_0 + 1229.750000000000 pi_d_a5_a9_proc_1
      + 2458.750000000000 pi_d_a5_a9_proc_0 + 307.375000000000 pi_d_a9_a5_proc_1
      + 1536.375000000000 pi_d_a9_a5_proc_0 + 307.125000000000 pi_d_a6_a7_proc_0
      + 308.250000000000 pi_d_a7_a6_proc_0 + 307.375000000000 pi_d_a6_a8_proc_0
      + 308 pi_d_a8_a6_proc_0 + 2458.750000000000 pi_d_a6_a9_proc_0
      + 307.375000000000 pi_d_a9_a6_proc_0 + 308.250000000000 pi_d_a7_a8_proc_0
      + 307.125000000000 pi_d_a8_a7_proc_0 + 2458.875000000000 pi_d_a7_a9_proc_0
      + 307.250000000000 pi_d_a9_a7_proc_0 + 2458.750000000000 pi_d_a8_a9_proc_0
      + 307.375000000000 pi_d_a9_a8_proc_0 + 0.125000000000 pi_y2_a0_proc_0
      + 0.750000000000 pi_y2_a0_proc_1 + 0.125000000000 pi_y2_a1_proc_0
      + 0.750000000000 pi_y2_a1_proc_1 + 0.500000000000 pi_y2_a2_proc_0
      + 0.375000000000 pi_y2_a2_proc_1 + 0.875000000000 pi_y2_a3_proc_0
      + 0.875000000000 pi_y2_a4_proc_0 + 0.375000000000 pi_y2_a5_proc_0
      + 0.500000000000 pi_y2_a5_proc_1 + 0.875000000000 pi_y2_a6_proc_0
      + 0.875000000000 pi_y2_a7_proc_0 + 0.875000000000 pi_y2_a8_proc_0
      + 0.875000000000 pi_y2_a9_proc_1
Subject To
 c1: 0.000868809731 pi_nr_a0 + 0.000919117647 pi_nr_a1 + 0.000962463908 pi_nr_a2
     + 0.000924214418 pi_nr_a3 + 0.001420454545 pi_nr_a4
     + 0.000813669650 pi_nr_a5 + 0.001663893511 pi_nr_a6
     + 0.001278772379 pi_nr_a7 + 0.001015228426 pi_nr_a8
     + 0.001038421599 pi_nr_a9 + pi_p_a1_a2 + pi_p_a1_a5 + 2 pi_p_a1_a9
     + pi_p_a7_a9 + pi_p_a2_a9 + 2458 pi_d_a0_a1_proc_0 + pi_d_a1_a0_proc_1
     + 2459 pi_d_a1_a0_proc_0 + 2459 pi_d_a0_a2_proc_1 + 2459 pi_d_a0_a2_proc_0
     + 2458 pi_d_a0_a3_proc_0 + pi_d_a3_a0_proc_0 + 2458 pi_d_a0_a4_proc_0
     + pi_d_a4_a0_proc_0 + pi_d_a0_a5_proc_1 + 2459 pi_d_a0_a5_proc_0
     + 2458 pi_d_a5_a0_proc_0 + 2459 pi_d_a6_a0_proc_0 + 2458 pi_d_a0_a7_proc_0
     + pi_d_a7_a0_proc_0 + 2458 pi_d_a0_a8_proc_0 + pi_d_a8_a0_proc_0
     + pi_d_a0_a9_proc_1 + 2459 pi_d_a0_a9_proc_0 + 2458 pi_d_a9_a0_proc_0
     + 2459 pi_d_a1_a2_proc_1 + 2459 pi_d_a1_a2_proc_0 + 2459 pi_d_a1_a3_proc_0
     + 2459 pi_d_a1_a4_proc_0 + pi_d_a1_a5_proc_1 + 2459 pi_d_a1_a5_proc_0
     + 2458 pi_d_a5_a1_proc_0 + 2459 pi_d_a1_a6_proc_0 + 2459 pi_d_a1_a7_proc_0
     + 2459 pi_d_a1_a8_proc_0 + 2 pi_d_a1_a9_proc_1 + 2460 pi_d_a1_a9_proc_0
     - pi_d_a9_a1_proc_1 + 2457 pi_d_a9_a1_proc_0 + pi_d_a3_a2_proc_0
     + pi_d_a4_a2_proc_0 + 2458 pi_d_a2_a5_proc_1 + 2458 pi_d_a2_a5_proc_0
     + pi_d_a5_a2_proc_1 + pi_d_a5_a2_proc_0 + pi_d_a6_a2_proc_0
     + pi_d_a7_a2_proc_0 + pi_d_a8_a2_proc_0 + 2459 pi_d_a2_a9_proc_1
     + 2459 pi_d_a2_a9_proc_0 + pi_d_a3_a4_proc_0 + 2459 pi_d_a3_a5_proc_0
     + pi_d_a3_a6_proc_0 + pi_d_a7_a3_proc_0 + pi_d_a3_a8_proc_0
     + 2459 pi_d_a3_a9_proc_0 + 2459 pi_d_a4_a5_proc_0 + pi_d_a4_a6_proc_0
     + pi_d_a7_a4_proc_0 + pi_d_a4_a8_proc_0 + 2459 pi_d_a4_a9_proc_0
     + 2458 pi_d_a5_a6_proc_0 + pi_d_a6_a5_proc_0 + 2458 pi_d_a5_a7_proc_0
     + pi_d_a7_a5_proc_0 + 2458 pi_d_a5_a8_proc_0 + pi_d_a8_a5_proc_0
     + pi_d_a5_a9_proc_1 + 2459 pi_d_a5_a9_proc_0 + 2458 pi_d_a9_a5_proc_0
     + pi_d_a7_a6_proc_0 + pi_d_a8_a6_proc_0 + 2459 pi_d_a6_a9_proc_0
     + pi_d_a7_a8_proc_0 + 2459 pi_d_a7_a9_proc_0 + 2459 pi_d_a8_a9_proc_0
     + pi_y2_a0_proc_1 + pi_y2_a1_proc_1 + pi_y2_a2_proc_0 + pi_y2_a3_proc_0
     + pi_y2_a4_proc_0 + pi_y2_a5_proc_1 + pi_y2_a6_proc_0 + pi_y2_a7_proc_0
     + pi_y2_a8_proc_0 + pi_y2_a9_proc_1 = 0.000134517084
 c2: pi_nr_a0 + pi_nr_a1 + pi_nr_a2 + pi_nr_a3 + pi_nr_a4 + pi_nr_a5 + pi_nr_a6
     + pi_nr_a7 + pi_nr_a8 + pi_nr_a9 - pi_y1_a0 - pi_y1_a1 - pi_y1_a2
     - pi_y1_a3 - pi_y1_a4 - pi_y1_a5 - pi_y1_a6 - pi_y1_a7 - pi_y1_a8
     - pi_y1_a9 >= 1
 c3: pi_p_a0_a1 + pi_p_a0_a7 - pi_p_a5_a0 + pi_d_a0_a1_proc_1
     + pi_d_a0_a1_proc_0 - pi_d_a1_a0_proc_1 - pi_d_a1_a0_proc_0
     + pi_d_a0_a2_proc_1 + pi_d_a0_a2_proc_0 - pi_d_a2_a0_proc_1
     - pi_d_a2_a0_proc_0 + pi_d_a0_a3_proc_0 - pi_d_a3_a0_proc_0
     + pi_d_a0_a4_proc_0 - pi_d_a4_a0_proc_0 + pi_d_a0_a5_proc_1
     + pi_d_a0_a5_proc_0 - pi_d_a5_a0_proc_1 - pi_d_a5_a0_proc_0
     + pi_d_a0_a6_proc_0 - pi_d_a6_a0_proc_0 + pi_d_a0_a7_proc_0
     - pi_d_a7_a0_proc_0 + pi_d_a0_a8_proc_0 - pi_d_a8_a0_proc_0
     + pi_d_a0_a9_proc_1 + pi_d_a0_a9_proc_0 - pi_d_a9_a0_proc_1
     - pi_d_a9_a0_proc_0 >= 0
 c4: 1134 pi_p_a0_a1 + 1134 pi_p_a0_a7 + 1134 pi_d_a0_a1_proc_0
     + 1134 pi_d_a0_a2_proc_0 + 1134 pi_d_a0_a3_proc_0 + 1134 pi_d_a0_a4_proc_0
     + 1134 pi_d_a0_a5_proc_0 + 1134 pi_d_a0_a6_proc_0 + 1134 pi_d_a0_a7_proc_0
     + 1134 pi_d_a0_a8_proc_0 + 1134 pi_d_a0_a9_proc_0 + pi_y1_a0
     + pi_y2_a0_proc_0 >= 0
 c5: 1151 pi_p_a0_a1 + 1151 pi_p_a0_a7 + 1151 pi_d_a0_a1_proc_1
     + 1151 pi_d_a0_a2_proc_1 + 1151 pi_d_a0_a5_proc_1 + 1151 pi_d_a0_a9_proc_1
     + pi_y1_a0 + pi_y2_a0_proc_1 >= 0
 c6: - pi_p_a0_a1 + pi_p_a1_a2 - pi_p_a3_a1 + pi_p_a1_a5 + pi_p_a1_a9
     - pi_p_a7_a1 - pi_d_a0_a1_proc_1 - pi_d_a0_a1_proc_0 + pi_d_a1_a0_proc_1
     + pi_d_a1_a0_proc_0 + pi_d_a1_a2_proc_1 + pi_d_a1_a2_proc_0
     - pi_d_a2_a1_proc_1 - pi_d_a2_a1_proc_0 + pi_d_a1_a3_proc_0
     - pi_d_a3_a1_proc_0 + pi_d_a1_a4_proc_0 - pi_d_a4_a1_proc_0
     + pi_d_a1_a5_proc_1 + pi_d_a1_a5_proc_0 - pi_d_a5_a1_proc_1
     - pi_d_a5_a1_proc_0 + pi_d_a1_a6_proc_0 - pi_d_a6_a1_proc_0
     + pi_d_a1_a7_proc_0 - pi_d_a7_a1_proc_0 + pi_d_a1_a8_proc_0
     - pi_d_a8_a1_proc_0 + pi_d_a1_a9_proc_1 + pi_d_a1_a9_proc_0
     - pi_d_a9_a1_proc_1 - pi_d_a9_a1_proc_0 >= 0
 c7: 1103 pi_p_a1_a2 + 1103 pi_p_a1_a5 + 1103 pi_p_a1_a9
     + 1103 pi_d_a1_a0_proc_0 + 1103 pi_d_a1_a2_proc_0 + 1103 pi_d_a1_a3_proc_0
     + 1103 pi_d_a1_a4_proc_0 + 1103 pi_d_a1_a5_proc_0 + 1103 pi_d_a1_a6_proc_0
     + 1103 pi_d_a1_a7_proc_0 + 1103 pi_d_a1_a8_proc_0 + 1103 pi_d_a1_a9_proc_0
     + pi_y1_a1 + pi_y2_a1_proc_0 >= 0
 c8: 1088 pi_p_a1_a2 + 1088 pi_p_a1_a5 + 1088 pi_p_a1_a9
     + 1088 pi_d_a1_a0_proc_1 + 1088 pi_d_a1_a2_proc_1 + 1088 pi_d_a1_a5_proc_1
     + 1088 pi_d_a1_a9_proc_1 + pi_y1_a1 + pi_y2_a1_proc_1 >= 0
 c9: - pi_p_a1_a2 + pi_p_a2_a4 + pi_p_a2_a3 + pi_p_a2_a9 - pi_d_a0_a2_proc_1
     - pi_d_a0_a2_proc_0 + pi_d_a2_a0_proc_1 + pi_d_a2_a0_proc_0
     - pi_d_a1_a2_proc_1 - pi_d_a1_a2_proc_0 + pi_d_a2_a1_proc_1
     + pi_d_a2_a1_proc_0 + pi_d_a2_a3_proc_0 - pi_d_a3_a2_proc_0
     + pi_d_a2_a4_proc_0 - pi_d_a4_a2_proc_0 + pi_d_a2_a5_proc_1
     + pi_d_a2_a5_proc_0 - pi_d_a5_a2_proc_1 - pi_d_a5_a2_proc_0
     + pi_d_a2_a6_proc_0 - pi_d_a6_a2_proc_0 + pi_d_a2_a7_proc_0
     - pi_d_a7_a2_proc_0 + pi_d_a2_a8_proc_0 - pi_d_a8_a2_proc_0
     + pi_d_a2_a9_proc_1 + pi_d_a2_a9_proc_0 - pi_d_a9_a2_proc_1
     - pi_d_a9_a2_proc_0 >= 0
 c10: 1039 pi_p_a2_a4 + 1039 pi_p_a2_a3 + 1039 pi_p_a2_a9
      + 1039 pi_d_a2_a0_proc_0 + 1039 pi_d_a2_a1_proc_0 + 1039 pi_d_a2_a3_proc_0
      + 1039 pi_d_a2_a4_proc_0 + 1039 pi_d_a2_a5_proc_0 + 1039 pi_d_a2_a6_proc_0
      + 1039 pi_d_a2_a7_proc_0 + 1039 pi_d_a2_a8_proc_0 + 1039 pi_d_a2_a9_proc_0
      + pi_y1_a2 + pi_y2_a2_proc_0 >= 0
 c11: 787 pi_p_a2_a4 + 787 pi_p_a2_a3 + 787 pi_p_a2_a9 + 787 pi_d_a2_a0_proc_1
      + 787 pi_d_a2_a1_proc_1 + 787 pi_d_a2_a5_proc_1 + 787 pi_d_a2_a9_proc_1
      + pi_y1_a2 + pi_y2_a2_proc_1 >= 0
 c12: pi_p_a3_a1 - pi_p_a4_a3 - pi_p_a8_a3 - pi_p_a2_a3 - pi_d_a0_a3_proc_0
      + pi_d_a3_a0_proc_0 - pi_d_a1_a3_proc_0 + pi_d_a3_a1_proc_0
      - pi_d_a2_a3_proc_0 + pi_d_a3_a2_proc_0 + pi_d_a3_a4_proc_0
      - pi_d_a4_a3_proc_0 + pi_d_a3_a5_proc_0 - pi_d_a5_a3_proc_0
      + pi_d_a3_a6_proc_0 - pi_d_a6_a3_proc_0 + pi_d_a3_a7_proc_0
      - pi_d_a7_a3_proc_0 + pi_d_a3_a8_proc_0 - pi_d_a8_a3_proc_0
      + pi_d_a3_a9_proc_0 - pi_d_a9_a3_proc_0 >= 0
 c13: 1082 pi_p_a3_a1 + 1082 pi_d_a3_a0_proc_0 + 1082 pi_d_a3_a1_proc_0
      + 1082 pi_d_a3_a2_proc_0 + 1082 pi_d_a3_a4_proc_0 + 1082 pi_d_a3_a5_proc_0
      + 1082 pi_d_a3_a6_proc_0 + 1082 pi_d_a3_a7_proc_0 + 1082 pi_d_a3_a8_proc_0
      + 1082 pi_d_a3_a9_proc_0 + pi_y1_a3 + pi_y2_a3_proc_0 >= 0
 c14: pi_p_a4_a3 - pi_p_a6_a4 - pi_p_a2_a4 - pi_d_a0_a4_proc_0
      + pi_d_a4_a0_proc_0 - pi_d_a1_a4_proc_0 + pi_d_a4_a1_proc_0
      - pi_d_a2_a4_proc_0 + pi_d_a4_a2_proc_0 - pi_d_a3_a4_proc_0
      + pi_d_a4_a3_proc_0 + pi_d_a4_a5_proc_0 - pi_d_a5_a4_proc_0
      + pi_d_a4_a6_proc_0 - pi_d_a6_a4_proc_0 + pi_d_a4_a7_proc_0
      - pi_d_a7_a4_proc_0 + pi_d_a4_a8_proc_0 - pi_d_a8_a4_proc_0
      + pi_d_a4_a9_proc_0 - pi_d_a9_a4_proc_0 >= 0
 c15: 704 pi_p_a4_a3 + 704 pi_d_a4_a0_proc_0 + 704 pi_d_a4_a1_proc_0
      + 704 pi_d_a4_a2_proc_0 + 704 pi_d_a4_a3_proc_0 + 704 pi_d_a4_a5_proc_0
      + 704 pi_d_a4_a6_proc_0 + 704 pi_d_a4_a7_proc_0 + 704 pi_d_a4_a8_proc_0
      + 704 pi_d_a4_a9_proc_0 + pi_y1_a4 + pi_y2_a4_proc_0 >= 0
 c16: - pi_p_a1_a5 + pi_p_a5_a0 - pi_d_a0_a5_proc_1 - pi_d_a0_a5_proc_0
      + pi_d_a5_a0_proc_1 + pi_d_a5_a0_proc_0 - pi_d_a1_a5_proc_1
      - pi_d_a1_a5_proc_0 + pi_d_a5_a1_proc_1 + pi_d_a5_a1_proc_0
      - pi_d_a2_a5_proc_1 - pi_d_a2_a5_proc_0 + pi_d_a5_a2_proc_1
      + pi_d_a5_a2_proc_0 - pi_d_a3_a5_proc_0 + pi_d_a5_a3_proc_0
      - pi_d_a4_a5_proc_0 + pi_d_a5_a4_proc_0 + pi_d_a5_a6_proc_0
      - pi_d_a6_a5_proc_0 + pi_d_a5_a7_proc_0 - pi_d_a7_a5_proc_0
      + pi_d_a5_a8_proc_0 - pi_d_a8_a5_proc_0 + pi_d_a5_a9_proc_1
      + pi_d_a5_a9_proc_0 - pi_d_a9_a5_proc_1 - pi_d_a9_a5_proc_0 >= 0
 c17: 471 pi_p_a5_a0 + 471 pi_d_a5_a0_proc_0 + 471 pi_d_a5_a1_proc_0
      + 471 pi_d_a5_a2_proc_0 + 471 pi_d_a5_a3_proc_0 + 471 pi_d_a5_a4_proc_0
      + 471 pi_d_a5_a6_proc_0 + 471 pi_d_a5_a7_proc_0 + 471 pi_d_a5_a8_proc_0
      + 471 pi_d_a5_a9_proc_0 + pi_y1_a5 + pi_y2_a5_proc_0 >= 0
 c18: 1229 pi_p_a5_a0 + 1229 pi_d_a5_a0_proc_1 + 1229 pi_d_a5_a1_proc_1
      + 1229 pi_d_a5_a2_proc_1 + 1229 pi_d_a5_a9_proc_1 + pi_y1_a5
      + pi_y2_a5_proc_1 >= 0
 c19: pi_p_a6_a4 - pi_d_a0_a6_proc_0 + pi_d_a6_a0_proc_0 - pi_d_a1_a6_proc_0
      + pi_d_a6_a1_proc_0 - pi_d_a2_a6_proc_0 + pi_d_a6_a2_proc_0
      - pi_d_a3_a6_proc_0 + pi_d_a6_a3_proc_0 - pi_d_a4_a6_proc_0
      + pi_d_a6_a4_proc_0 - pi_d_a5_a6_proc_0 + pi_d_a6_a5_proc_0
      + pi_d_a6_a7_proc_0 - pi_d_a7_a6_proc_0 + pi_d_a6_a8_proc_0
      - pi_d_a8_a6_proc_0 + pi_d_a6_a9_proc_0 - pi_d_a9_a6_proc_0 >= 0
 c20: 601 pi_p_a6_a4 + 601 pi_d_a6_a0_proc_0 + 601 pi_d_a6_a1_proc_0
      + 601 pi_d_a6_a2_proc_0 + 601 pi_d_a6_a3_proc_0 + 601 pi_d_a6_a4_proc_0
      + 601 pi_d_a6_a5_proc_0 + 601 pi_d_a6_a7_proc_0 + 601 pi_d_a6_a8_proc_0
      + 601 pi_d_a6_a9_proc_0 + pi_y1_a6 + pi_y2_a6_proc_0 >= 0
 c21: - pi_p_a0_a7 - pi_p_a9_a7 + pi_p_a7_a9 + pi_p_a7_a1 - pi_d_a0_a7_proc_0
      + pi_d_a7_a0_proc_0 - pi_d_a1_a7_proc_0 + pi_d_a7_a1_proc_0
      - pi_d_a2_a7_proc_0 + pi_d_a7_a2_proc_0 - pi_d_a3_a7_proc_0
      + pi_d_a7_a3_proc_0 - pi_d_a4_a7_proc_0 + pi_d_a7_a4_proc_0
      - pi_d_a5_a7_proc_0 + pi_d_a7_a5_proc_0 - pi_d_a6_a7_proc_0
      + pi_d_a7_a6_proc_0 + pi_d_a7_a8_proc_0 - pi_d_a8_a7_proc_0
      + pi_d_a7_a9_proc_0 - pi_d_a9_a7_proc_0 >= 0
 c22: 782 pi_p_a7_a9 + 782 pi_p_a7_a1 + 782 pi_d_a7_a0_proc_0
      + 782 pi_d_a7_a1_proc_0 + 782 pi_d_a7_a2_proc_0 + 782 pi_d_a7_a3_proc_0
      + 782 pi_d_a7_a4_proc_0 + 782 pi_d_a7_a5_proc_0 + 782 pi_d_a7_a6_proc_0
      + 782 pi_d_a7_a8_proc_0 + 782 pi_d_a7_a9_proc_0 + pi_y1_a7
      + pi_y2_a7_proc_0 >= 0
 c23: pi_p_a8_a3 - pi_d_a0_a8_proc_0 + pi_d_a8_a0_proc_0 - pi_d_a1_a8_proc_0
      + pi_d_a8_a1_proc_0 - pi_d_a2_a8_proc_0 + pi_d_a8_a2_proc_0
      - pi_d_a3_a8_proc_0 + pi_d_a8_a3_proc_0 - pi_d_a4_a8_proc_0
      + pi_d_a8_a4_proc_0 - pi_d_a5_a8_proc_0 + pi_d_a8_a5_proc_0
      - pi_d_a6_a8_proc_0 + pi_d_a8_a6_proc_0 - pi_d_a7_a8_proc_0
      + pi_d_a8_a7_proc_0 + pi_d_a8_a9_proc_0 - pi_d_a9_a8_proc_0 >= 0
 c24: 985 pi_p_a8_a3 + 985 pi_d_a8_a0_proc_0 + 985 pi_d_a8_a1_proc_0
      + 985 pi_d_a8_a2_proc_0 + 985 pi_d_a8_a3_proc_0 + 985 pi_d_a8_a4_proc_0
      + 985 pi_d_a8_a5_proc_0 + 985 pi_d_a8_a6_proc_0 + 985 pi_d_a8_a7_proc_0
      + 985 pi_d_a8_a9_proc_0 + pi_y1_a8 + pi_y2_a8_proc_0 >= 0
 c25: pi_p_a9_a7 - pi_p_a1_a9 - pi_p_a7_a9 - pi_p_a2_a9 - pi_d_a0_a9_proc_1
      - pi_d_a0_a9_proc_0 + pi_d_a9_a0_proc_1 + pi_d_a9_a0_proc_0
      - pi_d_a1_a9_proc_1 - pi_d_a1_a9_proc_0 + pi_d_a9_a1_proc_1
      + pi_d_a9_a1_proc_0 - pi_d_a2_a9_proc_1 - pi_d_a2_a9_proc_0
      + pi_d_a9_a2_proc_1 + pi_d_a9_a2_proc_0 - pi_d_a3_a9_proc_0
      + pi_d_a9_a3_proc_0 - pi_d_a4_a9_proc_0 + pi_d_a9_a4_proc_0
      - pi_d_a5_a9_proc_1 - pi_d_a5_a9_proc_0 + pi_d_a9_a5_proc_1
      + pi_d_a9_a5_proc_0 - pi_d_a6_a9_proc_0 + pi_d_a9_a6_proc_0
      - pi_d_a7_a9_proc_0 + pi_d_a9_a7_proc_0 - pi_d_a8_a9_proc_0
      + pi_d_a9_a8_proc_0 >= 0
 c26: 1154 pi_p_a9_a7 + 1154 pi_d_a9_a0_proc_0 + 1154 pi_d_a9_a1_proc_0
      + 1154 pi_d_a9_a2_proc_0 + 1154 pi_d_a9_a3_proc_0 + 1154 pi_d_a9_a4_proc_0
      + 1154 pi_d_a9_a5_proc_0 + 1154 pi_d_a9_a6_proc_0 + 1154 pi_d_a9_a7_proc_0
      + 1154 pi_d_a9_a8_proc_0 + pi_y1_a9 + pi_y2_a9_proc_0 >= 0
 c27: 963 pi_p_a9_a7 + 963 pi_d_a9_a0_proc_1 + 963 pi_d_a9_a1_proc_1
      + 963 pi_d_a9_a2_proc_1 + 963 pi_d_a9_a5_proc_1 + pi_y1_a9
      + pi_y2_a9_proc_1 >= 0

Bounds
       pi_y1_a0 Free
       pi_y1_a1 Free
       pi_y1_a2 Free
       pi_y1_a3 Free
       pi_y1_a4 Free
       pi_y1_a5 Free
       pi_y1_a6 Free
       pi_y1_a7 Free
       pi_y1_a8 Free
       pi_y1_a9 Free
End
