benchmark/results/graph__10-1000-0.10-02_15/graph__10-1000-0.10-02_15_Quinton_Benders_aux.txt
solution for: Quinton Benders_auxiliary_sub
objective: 0.245124
status: OPTIMAL_SOLUTION(2)
pi_p_a4_a3=0.000
pi_p_a1_a5=0.000
pi_p_a5_a0=0.000
pi_p_a7_a9=0.000
pi_d_a0_a6_proc_0=0.000
pi_d_a9_a1_proc_1=0.000
pi_d_a3_a7_proc_0=0.000
pi_d_a8_a4_proc_0=0.000
pi_d_a6_a8_proc_0=0.000
pi_y1_a1=-0.146
pi_y1_a3=-0.146
pi_y1_a4=-0.095
pi_y1_a5=-0.165
pi_y1_a6=-0.081
pi_y1_a7=-0.105
pi_y1_a8=-0.132
pi_y1_a9=-0.130
pi_y2_a5_proc_0=0.102
pi_y2_a9_proc_0=0.130
